\ LP format - for model browsing. Use MPS format to capture full model detail.
Minimize
  C63(1)
Subject To
 c0: B0(9) + B1(11) = 1
 c1: B2(11) + B3(12) = 1
 c2: B4(10) + B5(11) = 1
 c3: B6(8) + B7(10) = 1
 c4: B8(11) + B9(13) = 1
 c5: B10(10) + B11(9) = 1
 c6: B12(9) + B13(11) = 1
 c7: B14(12) + B15(11) = 1
 c8: B16(11) + B17(10) = 1
 c9: - 1e+09 B0(9) + C45(9) <= 0
 c10: - 1e+09 B1(11) + C46(11) <= 0
 c11: - 1e+09 B2(11) + C47(13) <= 0
 c12: - 1e+09 B3(12) + C48(13) <= 0
 c13: - 1e+09 B4(10) + C49(11) <= 0
 c14: - 1e+09 B5(11) + C50(13) <= 0
 c15: - 1e+09 B6(8) + C51(8) <= 0
 c16: - 1e+09 B7(10) + C52(10) <= 0
 c17: - 1e+09 B8(11) + C53(12) <= 0
 c18: - 1e+09 B9(13) + C54(14) <= 0
 c19: - 1e+09 B10(10) + C55(11) <= 0
 c20: - 1e+09 B11(9) + C56(11) <= 0
 c21: - 1e+09 B12(9) + C57(9) <= 0
 c22: - 1e+09 B13(11) + C58(11) <= 0
 c23: - 1e+09 B14(12) + C59(13) <= 0
 c24: - 1e+09 B15(11) + C60(13) <= 0
 c25: - 1e+09 B16(11) + C61(13) <= 0
 c26: - 1e+09 B17(10) + C62(11) <= 0
 c27: - 17 B0(9) - 25 B1(11) - C45(9) - C46(11) + C47(13) + C48(13) >= 0
 c28: - 17 B0(9) - 1.000000025e+09 B1(11) - 1e+09 B3(12) - C45(9) - C46(11)
   + C47(13) + C48(13) >= -1.999999993e+09
 c29: - 40 B2(11) - 30 B3(12) - C47(13) - C48(13) + C49(11) + C50(13) >= 0
 c30: - 1.00000004e+09 B2(11) - 30 B3(12) - 1e+09 B4(10) - C47(13)
   - C48(13) + C49(11) + C50(13) >= -1.999999995e+09
 c31: - 30 B6(8) - 50 B7(10) - C51(8) - C52(10) + C53(12) + C54(14) >= 0
 c32: - 55 B8(11) - 66 B9(13) - C53(12) - C54(14) + C55(11) + C56(11) >= 0
 c33: - 1.000000055e+09 B8(11) - 66 B9(13) - 1e+09 B10(10) - C53(12)
   - C54(14) + C55(11) + C56(11) >= -1.999999993e+09
 c34: - 56 B12(9) - 62 B13(11) - C57(9) - C58(11) + C59(13) + C60(13) >= 0
 c35: - 56 B12(9) - 1.000000062e+09 B13(11) - 1e+09 B14(12) - C57(9)
   - C58(11) + C59(13) + C60(13) >= -1.999999995e+09
 c36: - 70 B14(12) - 80 B15(11) - C59(13) - C60(13) + C61(13) + C62(11)
   >= 0
 c37: - 70 B14(12) - 1.00000008e+09 B15(11) - 1e+09 B17(10) - C59(13)
   - C60(13) + C61(13) + C62(11) >= -1.999999995e+09
 c38: - 1e+09 B0(9) - 1e+09 B6(8) - 1e+09 B18(2) + C45(9) - C51(8)
   >= -2.999999964e+09
 c39: - 1e+09 B0(9) - 1e+09 B6(8) + 1e+09 B18(2) - C45(9) + C51(8)
   >= -1.999999979e+09
 c40: - 1e+09 B1(11) - 1e+09 B9(13) - 1e+09 B19(2) + C46(11) - C54(14)
   >= -2.999999928e+09
 c41: - 1e+09 B1(11) - 1e+09 B9(13) + 1e+09 B19(2) - C46(11) + C54(14)
   >= -1.999999968e+09
 c42: - 1e+09 B0(9) - 1e+09 B12(9) - 1e+09 B20(2) + C45(9) - C57(9)
   >= -2.99999994e+09
 c43: - 1e+09 B0(9) - 1e+09 B12(9) + 1e+09 B20(2) - C45(9) + C57(9)
   >= -1.999999977e+09
 c44: - 1e+09 B1(11) - 1e+09 B13(11) - 1e+09 B21(2) + C46(11) - C58(11)
   >= -2.999999929e+09
 c45: - 1e+09 B1(11) - 1e+09 B13(11) + 1e+09 B21(2) - C46(11) + C58(11)
   >= -1.999999968e+09
 c46: - 1e+09 B1(11) - 1e+09 B14(12) - 1e+09 B22(2) + C46(11) - C59(13)
   >= -2.999999925e+09
 c47: - 1e+09 B1(11) - 1e+09 B14(12) + 1e+09 B22(2) - C46(11) + C59(13)
   >= -1.99999997e+09
 c48: - 1e+09 B3(12) - 1e+09 B9(13) - 1e+09 B23(2) + C48(13) - C54(14)
   >= -2.999999929e+09
 c49: - 1e+09 B3(12) - 1e+09 B9(13) + 1e+09 B23(2) - C48(13) + C54(14)
   >= -1.999999961e+09
 c50: - 1e+09 B2(11) - 1e+09 B8(11) - 1e+09 B24(2) + C47(13) - C53(12)
   >= -2.999999937e+09
 c51: - 1e+09 B2(11) - 1e+09 B8(11) + 1e+09 B24(2) - C47(13) + C53(12)
   >= -1.999999952e+09
 c52: - 1e+09 B2(11) - 1e+09 B10(10) - 1e+09 B25(2) + C47(13) - C55(11)
   >= -2.999999915e+09
 c53: - 1e+09 B2(11) - 1e+09 B10(10) + 1e+09 B25(2) - C47(13) + C55(11)
   >= -1.999999955e+09
 c54: - 1e+09 B3(12) - 1e+09 B13(11) - 1e+09 B26(2) + C48(13) - C58(11)
   >= -2.999999931e+09
 c55: - 1e+09 B3(12) - 1e+09 B13(11) + 1e+09 B26(2) - C48(13) + C58(11)
   >= -1.999999965e+09
 c56: - 1e+09 B3(12) - 1e+09 B14(12) - 1e+09 B27(2) + C48(13) - C59(13)
   >= -2.999999923e+09
 c57: - 1e+09 B3(12) - 1e+09 B14(12) + 1e+09 B27(2) - C48(13) + C59(13)
   >= -1.999999964e+09
 c58: - 1e+09 B2(11) - 1e+09 B16(11) - 1e+09 B28(2) + C47(13) - C61(13)
   >= -2.999999901e+09
 c59: - 1e+09 B2(11) - 1e+09 B16(11) + 1e+09 B28(2) - C47(13) + C61(13)
   >= -1.999999954e+09
 c60: - 1e+09 B5(11) - 1e+09 B7(10) - 1e+09 B29(2) + C50(13) - C52(10)
   >= -2.999999944e+09
 c61: - 1e+09 B5(11) - 1e+09 B7(10) + 1e+09 B29(2) - C50(13) + C52(10)
   >= -1.999999832e+09
 c62: - 1e+09 B4(10) - 1e+09 B8(11) - 1e+09 B30(2) + C49(11) - C53(12)
   >= -2.999999937e+09
 c63: - 1e+09 B4(10) - 1e+09 B8(11) + 1e+09 B30(2) - C49(11) + C53(12)
   >= -1.999999843e+09
 c64: - 1e+09 B5(11) - 1e+09 B11(9) - 1e+09 B31(2) + C50(13) - C56(11)
   >= -2.999999929e+09
 c65: - 1e+09 B5(11) - 1e+09 B11(9) + 1e+09 B31(2) - C50(13) + C56(11)
   >= -1.999999834e+09
 c66: - 1e+09 B4(10) - 1e+09 B10(10) - 1e+09 B32(2) + C49(11) - C55(11)
   >= -2.999999915e+09
 c67: - 1e+09 B4(10) - 1e+09 B10(10) + 1e+09 B32(2) - C49(11) + C55(11)
   >= -1.999999843e+09
 c68: - 1e+09 B5(11) - 1e+09 B15(11) - 1e+09 B33(2) + C50(13) - C60(13)
   >= -2.999999913e+09
 c69: - 1e+09 B5(11) - 1e+09 B15(11) + 1e+09 B33(2) - C50(13) + C60(13)
   >= -1.999999833e+09
 c70: - 1e+09 B5(11) - 1e+09 B17(10) - 1e+09 B34(2) + C50(13) - C62(11)
   >= -2.999999892e+09
 c71: - 1e+09 B5(11) - 1e+09 B17(10) + 1e+09 B34(2) - C50(13) + C62(11)
   >= -1.999999834e+09
 c72: - 1e+09 B4(10) - 1e+09 B16(11) - 1e+09 B35(2) + C49(11) - C61(13)
   >= -2.999999905e+09
 c73: - 1e+09 B4(10) - 1e+09 B16(11) + 1e+09 B35(2) - C49(11) + C61(13)
   >= -1.999999842e+09
 c74: - 1e+09 B6(8) - 1e+09 B12(9) - 1e+09 B36(2) + C51(8) - C57(9)
   >= -2.999999939e+09
 c75: - 1e+09 B6(8) - 1e+09 B12(9) + 1e+09 B36(2) - C51(8) + C57(9)
   >= -1.999999964e+09
 c76: - 1e+09 B7(10) - 1e+09 B15(11) - 1e+09 B37(2) + C52(10) - C60(13)
   >= -2.999999911e+09
 c77: - 1e+09 B7(10) - 1e+09 B15(11) + 1e+09 B37(2) - C52(10) + C60(13)
   >= -1.999999943e+09
 c78: - 1e+09 B7(10) - 1e+09 B17(10) - 1e+09 B38(2) + C52(10) - C62(11)
   >= -2.999999895e+09
 c79: - 1e+09 B7(10) - 1e+09 B17(10) + 1e+09 B38(2) - C52(10) + C62(11)
   >= -1.999999945e+09
 c80: - 1e+09 B9(13) - 1e+09 B13(11) - 1e+09 B39(2) + C54(14) - C58(11)
   >= -2.99999993e+09
 c81: - 1e+09 B9(13) - 1e+09 B13(11) + 1e+09 B39(2) - C54(14) + C58(11)
   >= -1.999999928e+09
 c82: - 1e+09 B9(13) - 1e+09 B14(12) - 1e+09 B40(2) + C54(14) - C59(13)
   >= -2.999999924e+09
 c83: - 1e+09 B9(13) - 1e+09 B14(12) + 1e+09 B40(2) - C54(14) + C59(13)
   >= -1.999999927e+09
 c84: - 1e+09 B8(11) - 1e+09 B16(11) - 1e+09 B41(2) + C53(12) - C61(13)
   >= -2.999999904e+09
 c85: - 1e+09 B8(11) - 1e+09 B16(11) + 1e+09 B41(2) - C53(12) + C61(13)
   >= -1.99999994e+09
 c86: - 1e+09 B11(9) - 1e+09 B15(11) - 1e+09 B42(2) + C56(11) - C60(13)
   >= -2.999999912e+09
 c87: - 1e+09 B11(9) - 1e+09 B15(11) + 1e+09 B42(2) - C56(11) + C60(13)
   >= -1.999999928e+09
 c88: - 1e+09 B11(9) - 1e+09 B17(10) - 1e+09 B43(2) + C56(11) - C62(11)
   >= -2.999999892e+09
 c89: - 1e+09 B11(9) - 1e+09 B17(10) + 1e+09 B43(2) - C56(11) + C62(11)
   >= -1.999999926e+09
 c90: - 1e+09 B10(10) - 1e+09 B16(11) - 1e+09 B44(2) + C55(11) - C61(13)
   >= -2.999999904e+09
 c91: - 1e+09 B10(10) - 1e+09 B16(11) + 1e+09 B44(2) - C55(11) + C61(13)
   >= -1.999999915e+09
 c92: C45(9) >= 0
 c93: C46(11) >= 0
 c94: C47(13) >= 0
 c95: C48(13) >= 0
 c96: C49(11) >= 0
 c97: C50(13) >= 0
 c98: C51(8) >= 0
 c99: C52(10) >= 0
 c100: C53(12) >= 0
 c101: C54(14) >= 0
 c102: C55(11) >= 0
 c103: C56(11) >= 0
 c104: C57(9) >= 0
 c105: C58(11) >= 0
 c106: C59(13) >= 0
 c107: C60(13) >= 0
 c108: C61(13) >= 0
 c109: C62(11) >= 0
 c110: - 17 B0(9) - 25 B1(11) - 40 B2(11) - 30 B3(12) - 150 B4(10)
   - 160 B5(11) - 30 B6(8) - 50 B7(10) - 55 B8(11) - 66 B9(13) - 78 B10(10)
   - 65 B11(9) - 56 B12(9) - 62 B13(11) - 70 B14(12) - 80 B15(11)
   - 90 B16(11) - 100 B17(10) - C45(9) - C46(11) - C47(13) - C48(13)
   - C49(11) - C50(13) - C51(8) - C52(10) - C53(12) - C54(14) - C55(11)
   - C56(11) - C57(9) - C58(11) - C59(13) - C60(13) - C61(13) - C62(11)
   + C63(1) = 0
Bounds
Binaries
 B0(9) B1(11) B2(11) B3(12) B4(10) B5(11) B6(8) B7(10) B8(11) B9(13)
 B10(10) B11(9) B12(9) B13(11) B14(12) B15(11) B16(11) B17(10) B18(2)
 B19(2) B20(2) B21(2) B22(2) B23(2) B24(2) B25(2) B26(2) B27(2) B28(2)
 B29(2) B30(2) B31(2) B32(2) B33(2) B34(2) B35(2) B36(2) B37(2) B38(2)
 B39(2) B40(2) B41(2) B42(2) B43(2) B44(2)
End
